H48 Pb8 C8 Br24 N8
1.0
11.505665 -0.000059 -0.002437
-0.000059 11.529343 -0.000038
-0.002726 -0.000038 11.710403
H Pb C Br N
48 8 8 24 8
direct
0.439738 0.499917 0.395211 H
0.439738 0.499917 0.895211 H
0.439738 0.999917 0.395211 H
0.439738 0.999917 0.895211 H
0.939738 0.499917 0.395211 H
0.939738 0.499917 0.895211 H
0.939738 0.999917 0.395211 H
0.939738 0.999917 0.895211 H
0.406626 0.077954 0.023693 H
0.406626 0.077954 0.523693 H
0.406626 0.577954 0.023693 H
0.406626 0.577954 0.523693 H
0.906626 0.077954 0.023693 H
0.906626 0.077954 0.523693 H
0.906626 0.577954 0.023693 H
0.906626 0.577954 0.523693 H
0.406519 0.422137 0.023817 H
0.406519 0.422137 0.523817 H
0.406519 0.922137 0.023817 H
0.406519 0.922137 0.523817 H
0.906519 0.422137 0.023817 H
0.906519 0.422137 0.523817 H
0.906519 0.922137 0.023817 H
0.906519 0.922137 0.523817 H
0.114830 0.072832 0.489269 H
0.114830 0.072832 0.989269 H
0.114830 0.572832 0.489269 H
0.114830 0.572832 0.989269 H
0.614830 0.072832 0.489269 H
0.614830 0.072832 0.989269 H
0.614830 0.572832 0.489269 H
0.614830 0.572832 0.989269 H
0.114749 0.426942 0.489345 H
0.114749 0.426942 0.989345 H
0.114749 0.926942 0.489345 H
0.114749 0.926942 0.989345 H
0.614749 0.426942 0.489345 H
0.614749 0.426942 0.989345 H
0.614749 0.926942 0.489345 H
0.614749 0.926942 0.989345 H
0.085479 0.499968 0.108206 H
0.085479 0.499968 0.608206 H
0.085479 0.999968 0.108206 H
0.085479 0.999968 0.608206 H
0.585479 0.499968 0.108206 H
0.585479 0.499968 0.608206 H
0.585479 0.999968 0.108206 H
0.585479 0.999968 0.608206 H
0.236994 0.249990 0.241937 Pb
0.236994 0.249990 0.741937 Pb
0.236994 0.749990 0.241937 Pb
0.236994 0.749990 0.741937 Pb
0.736994 0.249990 0.241937 Pb
0.736994 0.249990 0.741937 Pb
0.736994 0.749990 0.241937 Pb
0.736994 0.749990 0.741937 Pb
0.447134 0.499989 0.488424 C
0.447134 0.499989 0.988424 C
0.447134 0.999989 0.488424 C
0.447134 0.999989 0.988424 C
0.947134 0.499989 0.488424 C
0.947134 0.499989 0.988424 C
0.947134 0.999989 0.488424 C
0.947134 0.999989 0.988424 C
0.213946 0.249949 0.487779 Br
0.213946 0.249949 0.987779 Br
0.213946 0.749949 0.487779 Br
0.213946 0.749949 0.987779 Br
0.713946 0.249949 0.487779 Br
0.713946 0.249949 0.987779 Br
0.713946 0.749949 0.487779 Br
0.713946 0.749949 0.987779 Br
0.214596 0.499994 0.260018 Br
0.214596 0.499994 0.760018 Br
0.214596 0.999994 0.260018 Br
0.214596 0.999994 0.760018 Br
0.714596 0.499994 0.260018 Br
0.714596 0.499994 0.760018 Br
0.714596 0.999994 0.260018 Br
0.714596 0.999994 0.760018 Br
0.485913 0.250050 0.219830 Br
0.485913 0.250050 0.719830 Br
0.485913 0.750050 0.219830 Br
0.485913 0.750050 0.719830 Br
0.985913 0.250050 0.219830 Br
0.985913 0.250050 0.719830 Br
0.985913 0.750050 0.219830 Br
0.985913 0.750050 0.719830 Br
0.072466 0.499928 0.020365 N
0.072466 0.499928 0.520365 N
0.072466 0.999928 0.020365 N
0.072466 0.999928 0.520365 N
0.572466 0.499928 0.020365 N
0.572466 0.499928 0.520365 N
0.572466 0.999928 0.020365 N
0.572466 0.999928 0.520365 N
